p cnf 1050 1258
c ind 694 695 696 709 716 742 803 804 817 824 0
c ind 828 830 833 849 851 854 866 867 886 888 0
c ind 892 903 904 908 909 910 914 916 687 802 0
c ind 717 729 688 689 801 692 693 800 1003 1004 0
c ind 1002 1001 1035 1017 1026 1040 1021 1031 1048 1034 0
c ind 1016 1025 1039 1020 1030 1047 999 1000 1033 1015 0
c ind 1024 1038 1019 1029 1046 998 1032 1014 1023 1037 0
c ind 1018 1028 1045 993 1009 1013 1043 997 996 995 0
c ind 994 991 992 1011 1041 1012 1042 990 985 989 0
c ind 988 987 986 1022 1036 1027 1044 690 691 983 0
c ind 984 976 977 982 1010 981 980 979 978 974 0
c ind 975 973 1006 972 970 971 1007 969 964 968 0
c ind 967 966 965 962 963 961 956 960 959 958 0
c ind 957 954 955 1008 947 948 953 952 951 950 0
c ind 949 1005 945 946 944 943 941 942 940 935 0
c ind 939 938 937 936 933 934 932 927 931 930 0
c ind 929 928 925 926 918 919 924 923 922 921 0
c ind 920 898 899 897 896 895 917 907 905 906 0
c ind 894 893 915 902 891 913 911 912 900 901 0
c ind 890 889 882 887 885 883 884 881 874 873 0
c ind 880 879 878 877 876 875 872 871 870 869 0
c ind 868 686 861 860 858 859 857 856 862 863 0
c ind 855 853 864 852 865 850 848 846 847 845 0
c ind 844 843 842 841 840 839 837 838 836 835 0
c ind 834 832 831 807 829 827 825 826 699 823 0
c ind 818 822 819 820 814 821 816 812 813 815 0
c ind 811 806 810 808 809 805 799 792 784 798 0
c ind 797 796 795 778 777 776 794 775 793 774 0
c ind 773 772 791 790 789 788 787 786 785 783 0
c ind 782 781 780 779 771 764 756 770 769 768 0
c ind 767 750 749 748 766 747 765 746 745 744 0
c ind 763 762 761 760 759 758 757 755 754 753 0
c ind 752 751 743 741 739 740 730 731 738 737 0
c ind 736 735 734 732 733 726 725 727 728 724 0
c ind 723 722 721 719 720 718 715 714 710 711 0
c ind 712 713 706 708 705 704 707 698 703 697 0
c ind 702 700 701 1 0
c ret 599 600 601 602 603 604 605 606 607 608 0
c ret 609 610 611 612 613 614 615 616 617 618 0
c ret 619 620 621 622 623 624 625 626 627 628 0
c ret 629 630 631 632 633 634 635 636 637 638 0
c ret 639 640 641 642 643 644 645 646 647 648 0
c ret 649 650 651 652 294 653 654 300 301 302 0
c ret 303 304 305 306 307 308 655 309 656 310 0
c ret 311 312 657 313 658 314 315 316 317 318 0
c ret 319 320 659 321 322 323 660 661 324 325 0
c ret 662 663 326 327 328 329 330 331 332 664 0
c ret 333 334 335 336 295 337 665 666 338 339 0
c ret 340 341 667 668 342 343 344 345 346 347 0
c ret 348 349 350 351 669 670 352 353 354 671 0
c ret 672 355 356 357 358 359 360 361 362 673 0
c ret 363 364 365 366 367 368 674 369 675 370 0
c ret 676 371 677 372 373 374 375 376 377 296 0
c ret 378 678 679 379 380 680 381 382 383 384 0
c ret 385 386 387 388 389 390 391 681 392 393 0
c ret 394 395 396 397 682 398 683 399 684 400 0
c ret 685 401 402 403 404 405 406 407 408 409 0
c ret 410 411 412 413 414 415 416 417 297 418 0
c ret 419 420 421 422 423 424 425 426 427 428 0
c ret 429 430 431 432 433 434 435 436 437 438 0
c ret 439 440 441 442 443 444 445 446 447 448 0
c ret 449 450 451 452 453 454 455 456 457 458 0
c ret 459 460 461 462 463 464 465 466 467 468 0
c ret 469 470 471 472 473 474 475 476 477 478 0
c ret 479 480 481 482 483 484 485 486 487 488 0
c ret 298 489 490 491 492 493 494 495 496 497 0
c ret 498 499 500 501 502 503 504 505 506 507 0
c ret 508 509 510 511 512 513 514 515 516 517 0
c ret 518 519 520 521 522 523 524 525 526 527 0
c ret 299 528 529 530 531 532 533 534 535 536 0
c ret 537 538 539 540 541 542 543 544 545 546 0
c ret 547 548 549 550 551 552 553 554 555 556 0
c ret 557 558 559 560 561 562 563 564 565 566 0
c ret 567 568 569 570 571 572 573 574 575 576 0
c ret 577 578 579 580 581 582 583 584 585 586 0
c ret 587 588 589 590 591 592 593 594 595 596 0
c ret 597 598 0
2 4 5 -289 0
2 3 5 -289 0
-2 289 0
-2 -5 0
-2 -3 -4 0
3 526 0
3 -527 533 0
3 527 534 0
-3 -526 527 -534 0
-3 -526 -527 -533 0
4 526 0
4 -527 -533 0
4 527 -534 0
-4 -526 527 534 0
-4 -526 -527 533 0
5 6 52 101 -122 0
5 -6 -52 101 -122 0
-5 -101 0
-5 6 -52 0
-5 122 0
-5 -6 52 0
6 -7 -9 0
6 -7 48 0
-6 7 0
-6 9 -48 0
4 7 -8 0
3 7 -8 0
-7 8 0
-3 -4 -7 0
8 -555 -584 -613 0
-8 555 0
-8 584 0
-8 613 0
9 -10 -47 -663 0
9 10 -11 -47 0
-9 47 0
-9 -10 663 0
-9 10 11 0
10 521 -523 0
-10 -521 0
-10 523 0
11 -12 -662 0
11 12 -13 0
-11 -12 662 0
-11 12 13 0
12 493 -495 0
-12 -493 0
-12 495 0
13 14 39 46 0
13 14 39 -42 0
-13 -14 0
-13 -39 0
-13 42 -46 0
14 -37 294 -469 0
14 15 294 469 0
-14 -294 0
-14 37 -469 0
-14 -15 469 0
15 -16 -659 0
-15 659 0
-15 16 0
16 17 -21 0
-16 -17 0
-16 21 0
17 -18 -326 0
17 -20 -326 0
17 -19 -326 0
-17 326 0
-17 18 19 20 0
18 -327 328 329 0
-18 327 0
-18 -329 0
-18 -328 0
19 332 335 336 0
-19 -332 0
-19 -336 0
-19 -335 0
20 -332 333 334 0
-20 332 0
-20 -334 0
-20 -333 0
21 22 -29 0
21 22 32 -359 0
-21 -22 0
-21 29 -32 0
-21 29 359 0
22 -23 26 0
22 26 380 0
-22 -26 0
-22 23 -380 0
23 -25 383 386 0
23 -24 -25 383 0
-23 -383 0
-23 25 0
-23 24 -386 0
24 384 -385 0
-24 -384 0
-24 385 0
25 381 382 0
-25 -381 0
-25 -382 0
24 -25 26 27 -28 0
25 -26 0
-26 -27 0
-24 -26 0
-26 28 0
27 392 393 0
27 392 400 401 0
-27 -392 0
-27 -393 -400 0
-27 -393 -401 0
28 -380 383 386 -387 0
-28 387 0
-28 -386 0
-28 380 0
-28 -383 0
29 30 -352 0
29 31 -352 -358 0
-29 352 0
-29 -30 358 0
-29 -30 -31 0
30 353 354 355 0
-30 -353 0
-30 -355 0
-30 -354 0
31 356 -357 0
-31 -356 0
-31 357 0
32 33 35 0
-32 -33 0
-32 -35 0
33 -34 358 -364 0
-33 34 0
-33 364 0
-33 -358 0
-30 31 34 -352 -359 0
30 -34 0
-31 -34 0
-34 352 0
-34 359 0
-34 35 -36 -372 0
-34 35 -36 -373 0
-35 36 0
34 -35 0
-35 372 373 0
36 358 364 -365 0
-36 365 0
-36 -364 0
-36 -358 0
37 -38 660 0
15 37 38 0
-37 -38 -660 0
-15 -37 38 0
38 435 -437 0
-38 -435 0
-38 437 0
39 -40 -41 -479 0
39 -40 -41 -480 0
-39 41 0
-39 40 0
-39 479 480 0
40 482 483 484 485 0
-40 -485 0
-40 -484 0
-40 -482 0
-40 -483 0
41 -476 -477 -478 481 0
-41 478 0
-41 -481 0
-41 476 0
-41 477 0
37 42 -43 0
-37 -42 0
-42 43 0
43 44 45 0
-43 -44 0
-43 -45 0
44 448 449 450 0
-44 -448 0
-44 -450 0
-44 -449 0
45 456 -458 0
-45 -456 0
-45 458 0
45 46 -294 0
46 -294 661 0
-46 294 0
-45 -46 -661 0
47 -490 497 0
-47 490 0
-47 -497 0
48 49 -490 0
11 13 48 0
13 48 49 0
11 48 -490 0
-13 -48 490 0
-11 -48 -49 0
49 51 -490 -497 0
49 50 -490 -497 0
-49 490 0
-49 497 0
-49 -50 -51 0
50 -498 499 0
-50 498 0
-50 -499 0
51 501 -502 -503 504 0
-51 -501 0
-51 -504 0
-51 503 0
-51 502 0
52 -53 -60 0
52 -53 97 0
-52 53 0
-52 60 -97 0
53 -54 56 0
53 -54 55 59 0
-53 54 0
-53 -55 -56 0
-53 -56 -59 0
54 -947 -976 0
-54 947 0
-54 976 0
55 918 0
55 -919 -925 0
55 919 -926 0
-55 -918 919 926 0
-55 -918 -919 925 0
56 -57 -58 0
-55 56 -58 0
-56 58 0
55 -56 57 0
-55 57 0
57 927 -934 0
57 -927 -933 0
55 -57 -927 933 0
55 -57 927 934 0
58 918 0
58 -919 925 0
58 919 926 0
-58 -918 919 -926 0
-58 -918 -919 -925 0
-55 59 0
59 -927 933 0
59 927 934 0
55 -59 -927 -933 0
55 -59 927 -934 0
60 -61 -96 -1026 0
60 61 -62 -96 0
-60 96 0
-60 -61 1026 0
-60 61 62 0
61 913 -915 0
-61 -913 0
-61 915 0
62 -63 -1025 0
62 63 -64 0
-62 -63 1025 0
-62 63 64 0
63 885 -887 0
-63 -885 0
-63 887 0
64 65 88 95 0
64 65 88 -91 0
-64 -65 0
-64 -88 0
-64 91 -95 0
65 -86 686 -861 0
65 66 686 861 0
-65 -686 0
-65 86 -861 0
-65 -66 861 0
66 -67 -1022 0
-66 1022 0
-66 67 0
67 -68 82 0
-67 68 0
-67 -82 0
68 -75 76 0
68 69 76 -751 0
-68 -76 0
-68 -69 75 0
-68 75 751 0
69 70 0
69 73 -750 0
69 73 756 0
-69 -70 -73 0
-69 -70 750 -756 0
70 -71 72 -744 -751 0
-70 71 0
-70 -72 0
-70 744 0
-70 751 0
71 745 746 747 0
-71 -745 0
-71 -747 0
-71 -746 0
72 748 -749 0
-72 -748 0
-72 749 0
73 74 750 756 -757 0
-73 -750 0
-73 -74 0
-73 757 0
-73 -756 0
74 764 765 0
-74 -764 0
-74 -765 0
71 75 -744 0
72 75 -744 -750 0
-75 744 0
-71 -75 750 0
-71 -72 -75 0
76 78 81 0
76 78 -80 0
76 77 78 0
-76 -78 0
-76 -77 80 -81 0
77 773 774 775 0
-77 -773 0
-77 -775 0
-77 -774 0
77 78 -772 0
78 79 -772 -778 0
-78 772 0
-77 -78 778 0
-77 -78 -79 0
79 776 -777 0
-79 -776 0
-79 777 0
80 784 785 0
80 784 792 793 0
-80 -784 0
-80 -785 -792 0
-80 -785 -793 0
79 81 -772 778 -779 0
-81 779 0
-79 -81 0
-81 772 0
-81 -778 0
82 -83 -718 0
82 -85 -718 0
82 -84 -718 0
-82 718 0
-82 83 84 85 0
83 -719 720 721 0
-83 719 0
-83 -721 0
-83 -720 0
84 724 727 728 0
-84 -724 0
-84 -728 0
-84 -727 0
85 -724 725 726 0
-85 724 0
-85 -726 0
-85 -725 0
86 -87 1023 0
66 86 87 0
-86 -87 -1023 0
-66 -86 87 0
87 827 -829 0
-87 -827 0
-87 829 0
88 -89 -90 -871 0
88 -89 -90 -872 0
-88 90 0
-88 89 0
-88 871 872 0
89 874 875 876 877 0
-89 -877 0
-89 -876 0
-89 -874 0
-89 -875 0
90 -868 -869 -870 873 0
-90 870 0
-90 -873 0
-90 868 0
-90 869 0
86 91 -92 0
-86 -91 0
-91 92 0
92 93 94 0
-92 -93 0
-92 -94 0
93 840 841 842 0
-93 -840 0
-93 -842 0
-93 -841 0
94 848 -850 0
-94 -848 0
-94 850 0
94 95 -686 0
95 -686 1024 0
-95 686 0
-94 -95 -1024 0
96 -882 889 0
-96 882 0
-96 -889 0
97 98 -882 0
62 64 97 0
64 97 98 0
62 97 -882 0
-64 -97 882 0
-62 -97 -98 0
98 100 -882 -889 0
98 99 -882 -889 0
-98 882 0
-98 889 0
-98 -99 -100 0
99 893 -894 -895 896 0
-99 -893 0
-99 -896 0
-99 895 0
-99 894 0
100 -890 891 0
-100 890 0
-100 -891 0
101 -102 112 0
-101 102 0
-101 -112 0
-7 102 -103 0
-7 102 111 0
7 -102 0
-102 103 -111 0
10 -47 103 -104 0
-10 -47 103 -685 0
47 -103 0
10 -103 104 0
-10 -103 685 0
-12 104 -684 0
12 104 -105 0
-12 -104 684 0
12 -104 105 0
39 105 106 110 0
39 105 106 -109 0
-39 -105 0
-105 -106 0
-105 109 -110 0
106 -108 294 -469 0
106 107 294 469 0
-106 -294 0
-106 108 -469 0
-106 -107 469 0
-16 107 -681 0
-107 681 0
16 -107 0
-38 108 682 0
38 107 108 0
-38 -108 -682 0
38 -107 -108 0
-43 108 109 0
43 -109 0
-108 -109 0
45 110 -294 0
110 -294 683 0
-110 294 0
-45 -110 -683 0
104 111 -490 0
49 105 111 0
104 105 111 0
49 111 -490 0
-49 -104 -111 0
-105 -111 490 0
-53 112 -113 0
-53 112 121 0
53 -112 0
-112 113 -121 0
61 -96 113 -114 0
-61 -96 113 -1048 0
96 -113 0
61 -113 114 0
-61 -113 1048 0
-63 114 -1047 0
63 114 -115 0
-63 -114 1047 0
63 -114 115 0
88 115 116 120 0
88 115 116 -119 0
-88 -115 0
-115 -116 0
-115 119 -120 0
116 -118 686 -861 0
116 117 686 861 0
-116 -686 0
-116 118 -861 0
-116 -117 861 0
-67 117 -1044 0
-117 1044 0
67 -117 0
-87 118 1045 0
87 117 118 0
-87 -118 -1045 0
87 -117 -118 0
-92 118 119 0
92 -119 0
-118 -119 0
94 120 -686 0
120 -686 1046 0
-120 686 0
-94 -120 -1046 0
114 121 -882 0
98 115 121 0
114 115 121 0
98 121 -882 0
-98 -114 -121 0
-115 -121 882 0
122 123 132 -141 -268 0
122 -123 -132 -141 -268 0
-122 268 0
-122 -123 132 0
-122 141 0
-122 123 -132 0
-7 123 -124 0
-7 123 131 0
7 -123 0
-123 124 -131 0
10 -47 124 -125 0
-10 -47 124 -658 0
47 -124 0
10 -124 125 0
-10 -124 658 0
-12 125 -657 0
12 125 -126 0
-12 -125 657 0
12 -125 126 0
39 126 127 130 0
39 126 127 -129 0
-39 -126 0
-126 -127 0
-126 129 -130 0
127 -128 294 -469 0
16 127 294 469 0
-127 -294 0
-127 128 -469 0
-16 -127 469 0
-38 128 655 0
16 38 128 0
-38 -128 -655 0
-16 38 -128 0
-43 128 129 0
43 -129 0
-128 -129 0
45 130 -294 0
130 -294 656 0
-130 294 0
-45 -130 -656 0
125 131 -490 0
49 126 131 0
125 126 131 0
49 131 -490 0
-49 -125 -131 0
-126 -131 490 0
-53 132 -133 0
-53 132 140 0
53 -132 0
-132 133 -140 0
61 -96 133 -134 0
-61 -96 133 -1021 0
96 -133 0
61 -133 134 0
-61 -133 1021 0
-63 134 -1020 0
63 134 -135 0
-63 -134 1020 0
63 -134 135 0
88 135 136 139 0
88 135 136 -138 0
-88 -135 0
-135 -136 0
-135 138 -139 0
136 -137 686 -861 0
67 136 686 861 0
-136 -686 0
-136 137 -861 0
-67 -136 861 0
-87 137 1018 0
67 87 137 0
-87 -137 -1018 0
-67 87 -137 0
-92 137 138 0
92 -138 0
-137 -138 0
94 139 -686 0
139 -686 1019 0
-139 686 0
-94 -139 -1019 0
134 140 -882 0
98 135 140 0
134 135 140 0
98 140 -882 0
-98 -134 -140 0
-135 -140 882 0
141 -142 -190 -247 -257 0
141 -142 -190 247 257 0
-141 190 0
-141 247 -257 0
-141 142 0
-141 -247 257 0
142 -143 -157 -181 0
142 143 157 172 0
142 143 157 -181 0
142 -143 -157 172 0
-142 143 -157 0
-142 -143 157 0
-142 -172 181 0
-7 143 -144 0
-7 143 -155 0
-7 143 -154 0
7 -143 0
-143 144 154 155 0
144 147 -148 0
-43 144 145 -148 0
-144 148 0
-144 -145 -147 0
43 -144 -147 0
-38 145 674 0
38 145 146 0
-38 -145 -674 0
38 -145 -146 0
-16 146 -673 0
-146 673 0
16 -146 0
45 147 -294 0
147 -294 675 0
-147 294 0
-45 -147 -675 0
148 -149 153 0
-148 149 0
-148 -153 0
39 149 150 0
-39 -149 0
-149 -150 0
-12 150 -490 0
150 -151 -490 0
-150 490 0
12 -150 151 0
-10 151 152 497 0
-50 151 152 -497 0
-151 -152 0
50 -151 -497 0
10 -151 497 0
-50 51 152 -490 -497 0
50 -152 0
-51 -152 0
-152 490 0
-152 497 0
-145 153 294 -469 0
146 153 294 469 0
-153 -294 0
145 -153 -469 0
-146 -153 469 0
-10 -47 154 -677 0
-154 677 0
10 -154 0
47 -154 0
-12 155 -156 -676 0
-155 676 0
12 -155 0
-155 156 0
151 156 -490 0
-156 490 0
-151 -156 0
-53 157 -158 0
-53 157 -170 0
-53 157 -169 0
53 -157 0
-157 158 169 170 0
158 161 -162 0
-92 158 159 -162 0
-158 162 0
-158 -159 -161 0
92 -158 -161 0
-87 159 1037 0
87 159 160 0
-87 -159 -1037 0
87 -159 -160 0
-67 160 -1036 0
-160 1036 0
67 -160 0
94 161 -686 0
161 -686 1038 0
-161 686 0
-94 -161 -1038 0
162 -163 168 0
-162 163 0
-162 -168 0
88 163 164 0
-88 -163 0
-163 -164 0
-63 164 -882 0
164 -165 -882 0
-164 882 0
63 -164 165 0
-61 165 166 889 0
-100 165 166 -889 0
-165 -166 0
100 -165 -889 0
61 -165 889 0
99 166 -167 0
-99 -166 0
-166 167 0
167 -882 -889 -890 891 0
-167 890 0
-167 -891 0
-167 882 0
-167 889 0
-159 168 686 -861 0
160 168 686 861 0
-168 -686 0
159 -168 -861 0
-160 -168 861 0
-61 -96 169 -1040 0
-169 1040 0
61 -169 0
96 -169 0
-63 170 -171 -1039 0
-170 1039 0
63 -170 0
-170 171 0
165 171 -882 0
-171 882 0
-165 -171 0
-7 172 -173 0
-7 172 -180 0
-7 172 -179 0
7 -172 0
-172 173 179 180 0
173 176 -177 0
-43 173 174 -177 0
-173 177 0
-173 -174 -176 0
43 -173 -176 0
-38 174 665 0
38 174 175 0
-38 -174 -665 0
38 -174 -175 0
-16 175 -664 0
-175 664 0
16 -175 0
45 176 -294 0
176 -294 666 0
-176 294 0
-45 -176 -666 0
-149 177 178 0
149 -177 0
-177 -178 0
-174 178 294 -469 0
175 178 294 469 0
-178 -294 0
174 -178 -469 0
-175 -178 469 0
-10 -47 179 -668 0
-179 668 0
10 -179 0
47 -179 0
-12 -156 180 -667 0
-180 667 0
12 -180 0
156 -180 0
-53 181 -182 0
-53 181 -189 0
-53 181 -188 0
53 -181 0
-181 182 188 189 0
182 185 -186 0
-92 182 183 -186 0
-182 186 0
-182 -183 -185 0
92 -182 -185 0
-87 183 1028 0
87 183 184 0
-87 -183 -1028 0
87 -183 -184 0
-67 184 -1027 0
-184 1027 0
67 -184 0
94 185 -686 0
185 -686 1029 0
-185 686 0
-94 -185 -1029 0
-163 186 187 0
163 -186 0
-186 -187 0
-183 187 686 -861 0
184 187 686 861 0
-187 -686 0
183 -187 -861 0
-184 -187 861 0
-61 -96 188 -1031 0
-188 1031 0
61 -188 0
96 -188 0
-63 -171 189 -1030 0
-189 1030 0
63 -189 0
171 -189 0
190 191 -192 -230 -238 0
190 191 -192 230 238 0
-190 -191 0
-190 230 -238 0
-190 192 0
-190 -230 238 0
172 -181 191 0
-172 -191 0
181 -191 0
192 -193 -204 -218 0
192 193 204 -218 0
-192 218 0
-192 -193 204 0
-192 193 -204 0
193 194 -200 -203 0
193 194 -200 686 0
-193 200 0
-193 -194 0
-193 203 -686 0
194 195 199 0
194 197 199 0
194 -195 197 686 0
-194 -195 -197 0
-194 195 -199 0
-194 -199 -686 0
195 -196 861 862 0
-195 196 0
-195 -862 0
-195 -861 0
196 863 864 865 0
-196 -863 0
-196 -865 0
-196 -864 0
-68 197 -1005 0
-68 82 197 198 0
68 -197 0
-197 -198 1005 0
-82 -197 1005 0
198 697 1042 0
-198 -697 0
-198 -1042 0
199 805 -1043 0
-197 199 -805 0
197 -199 -805 0
-199 805 1043 0
56 200 -201 0
59 200 -201 -918 0
-200 201 0
-56 -59 -200 0
-56 -200 918 0
-54 201 -202 0
54 -201 0
-201 202 0
88 167 202 0
88 99 202 0
-88 -202 0
-99 -167 -202 0
93 -199 203 0
-93 -203 0
199 -203 0
204 205 -211 -217 0
204 205 -211 294 0
-204 211 0
-204 -205 0
-204 217 -294 0
205 206 210 0
205 208 210 0
205 -206 208 294 0
-205 -206 -208 0
-205 206 -210 0
-205 -210 -294 0
206 -207 469 470 0
-206 207 0
-206 -470 0
-206 -469 0
207 471 472 473 0
-207 -471 0
-207 -473 0
-207 -472 0
-21 208 -642 0
17 -21 208 209 0
21 -208 0
-208 -209 642 0
-17 -208 642 0
209 305 679 0
-209 -305 0
-209 -679 0
210 413 -680 0
-208 210 -413 0
208 -210 -413 0
-210 413 680 0
-8 211 212 -215 0
8 -211 0
-211 -212 0
-211 215 0
-3 212 214 526 0
-3 212 -213 214 0
3 -212 0
-212 -214 0
-212 213 -526 0
-4 213 0
213 -535 541 0
213 535 542 0
4 -213 -535 -541 0
4 -213 535 -542 0
4 214 -535 541 0
4 214 535 542 0
-4 -214 0
-214 535 -542 0
-214 -535 -541 0
39 215 216 0
39 51 215 0
39 215 490 0
-39 -215 0
-51 -215 -216 -490 0
-50 216 -497 0
-216 497 0
50 -216 0
44 -210 217 0
-44 -217 0
210 -217 0
218 219 221 224 -225 0
218 -219 -221 224 -225 0
-218 -224 0
-218 219 -221 0
-218 225 0
-218 -219 221 0
-200 219 -220 686 0
93 -200 219 -220 0
-219 220 0
200 -219 0
-93 -219 -686 0
-68 220 -1005 1007 0
-220 1005 0
-220 -1007 0
68 -220 0
-21 -211 221 222 -223 0
-221 223 0
21 -221 0
211 -221 0
-221 -222 0
-44 222 -294 0
-222 294 0
44 -222 0
223 -642 644 0
-223 642 0
-223 -644 0
-57 -58 -59 224 0
57 -224 0
58 -224 0
59 -224 0
82 -202 225 -226 -229 0
-82 -225 0
-225 229 0
-225 226 0
202 -225 0
226 227 -228 -688 0
226 227 -228 -689 0
-226 228 0
-226 -227 0
-226 688 689 0
-93 227 -686 0
-227 686 0
93 -227 0
-54 228 -690 0
-54 228 691 0
54 -228 0
-228 690 -691 0
-75 76 229 0
69 76 229 0
-76 -229 0
-69 75 -229 0
230 -234 686 0
93 230 231 -234 0
-230 234 0
-230 -231 -686 0
-93 -230 -686 0
231 232 -805 0
-220 231 805 1013 0
-231 805 -1013 0
-231 -232 -805 0
220 -231 805 0
-68 232 -233 0
68 -232 0
-232 233 0
233 -1005 -1007 0
82 233 1005 0
233 -1005 -1011 0
-82 -233 1005 0
-233 -1005 1007 1011 0
-200 234 -235 236 0
-200 231 234 236 0
200 -234 0
-234 -236 0
-231 -234 235 0
235 861 862 0
-235 -861 0
-235 -862 0
232 236 -237 0
196 -231 236 0
196 236 -237 0
-231 232 236 0
231 -236 237 0
-196 -232 -236 0
-195 237 686 0
-237 -686 0
195 -237 0
238 -243 294 0
44 238 239 -243 0
-238 243 0
-238 -239 -294 0
-44 -238 -294 0
239 240 -413 0
-21 239 -242 413 0
-239 -240 -413 0
21 -239 413 0
-239 242 413 0
-21 240 -241 0
21 -240 0
-240 241 0
241 -642 -644 0
17 241 642 0
241 -642 -648 0
-17 -241 642 0
-241 -642 644 648 0
242 -642 644 650 0
-242 642 0
-242 -650 0
-242 -644 0
-211 243 -244 245 0
-211 239 243 245 0
211 -243 0
-243 -245 0
-239 -243 244 0
244 469 470 0
-244 -469 0
-244 -470 0
240 245 -246 0
207 -239 245 0
207 245 -246 0
-239 240 245 0
239 -245 246 0
-207 -240 -245 0
-206 246 294 0
-246 -294 0
206 -246 0
-53 164 247 248 0
-53 247 248 256 0
53 -247 0
-247 -248 0
-164 -247 -256 0
248 250 882 0
63 248 249 250 0
-248 -250 0
-248 -249 -882 0
-63 -248 -882 0
-61 249 889 -1035 0
61 -249 0
-249 1035 0
-249 -889 0
88 250 251 255 0
88 250 251 -254 0
-88 -250 0
-250 -251 0
-250 254 -255 0
251 -253 686 -861 0
251 252 686 861 0
-251 -686 0
-251 253 -861 0
-251 -252 861 0
-67 252 -690 0
-252 690 0
67 -252 0
-87 253 1032 0
87 252 253 0
-87 -253 -1032 0
87 -252 -253 0
-92 253 254 0
92 -254 0
-253 -254 0
94 255 -686 0
255 -686 1033 0
-255 686 0
-94 -255 -1033 0
-165 249 256 0
249 256 1034 0
-249 -256 0
165 -256 -1034 0
-7 150 257 258 0
-7 257 258 267 0
7 -257 0
-257 -258 0
-150 -257 -267 0
258 -260 261 0
12 258 259 261 0
-258 -261 0
-258 -259 260 0
-12 -258 260 0
-10 259 497 -672 0
10 -259 0
-259 672 0
-259 -497 0
12 260 490 0
260 490 671 0
152 260 490 0
-260 -490 0
-12 -152 -260 -671 0
39 261 262 266 0
39 261 262 -265 0
-39 -261 0
-261 -262 0
-261 265 -266 0
262 -264 294 -469 0
262 263 294 469 0
-262 -294 0
-262 264 -469 0
-262 -263 469 0
-16 263 -298 0
-263 298 0
16 -263 0
-38 264 669 0
38 263 264 0
-38 -264 -669 0
38 -263 -264 0
-43 264 265 0
43 -265 0
-264 -265 0
45 266 -294 0
266 -294 670 0
-266 294 0
-45 -266 -670 0
-151 259 267 0
259 267 671 0
-259 -267 0
151 -267 -671 0
112 268 269 279 0
-102 268 -269 -279 0
-102 268 269 279 0
112 268 -269 -279 0
-268 269 -279 0
-268 -269 279 0
102 -112 -268 0
-7 269 -270 0
-7 269 278 0
7 -269 0
-269 270 -278 0
10 -47 270 -271 0
-10 -47 270 -654 0
47 -270 0
10 -270 271 0
-10 -270 654 0
-12 271 -653 0
12 271 -272 0
-12 -271 653 0
12 -271 272 0
39 272 273 277 0
39 272 273 -276 0
-39 -272 0
-272 -273 0
-272 276 -277 0
273 274 -294 652 0
45 273 274 -294 0
-273 294 0
-273 -274 0
-45 -273 -652 0
-43 274 275 0
43 -274 0
-274 -275 0
16 38 275 0
-38 275 651 0
38 275 299 0
-38 -275 -651 0
-16 38 -275 -299 0
-16 38 276 -299 0
-16 276 -299 469 0
16 -276 0
-276 299 0
-38 -276 -469 0
277 294 651 0
277 294 469 0
38 277 294 0
-277 -294 0
-38 -277 -469 -651 0
271 278 -490 0
49 272 278 0
271 272 278 0
49 278 -490 0
-49 -271 -278 0
-272 -278 490 0
-53 279 -280 0
-53 279 288 0
53 -279 0
-279 280 -288 0
61 -96 280 -281 0
-61 -96 280 -1017 0
96 -280 0
61 -280 281 0
-61 -280 1017 0
-63 281 -1016 0
63 281 -282 0
-63 -281 1016 0
63 -281 282 0
88 282 283 287 0
88 282 283 -286 0
-88 -282 0
-282 -283 0
-282 286 -287 0
283 284 -686 1015 0
94 283 284 -686 0
-283 686 0
-283 -284 0
-94 -283 -1015 0
-92 284 285 0
92 -284 0
-284 -285 0
67 87 285 0
-87 285 1014 0
87 285 691 0
-87 -285 -1014 0
-67 87 -285 -691 0
-67 87 286 -691 0
-67 286 -691 861 0
67 -286 0
-286 691 0
-87 -286 -861 0
287 686 1014 0
287 686 861 0
87 287 686 0
-287 -686 0
-87 -287 -861 -1014 0
281 288 -882 0
98 282 288 0
281 282 288 0
98 288 -882 0
-98 -281 -288 0
-282 -288 882 0
17 -215 289 290 -291 0
215 -289 0
-289 -290 0
-17 -289 0
-289 291 0
29 33 35 290 0
-29 -290 0
-35 -290 0
-33 -290 0
22 291 -292 -555 0
-291 555 0
-22 -291 0
-291 292 0
222 292 -293 299 0
222 292 -293 -298 0
-292 293 0
-222 -292 0
-292 298 -299 0
293 -296 -584 -613 0
293 -297 -584 -613 0
-293 613 0
-293 584 0
-293 296 297 0
1 2 0
-1 -2 0
1049 0

